1000 100
281 197
187 275
377 356
156 465
44 117
168 62
202 471
292 327
446 217
438 141
138 189
298 404
331 22
76 165
94 494
395 467
164 299
438 82
267 322
492 219
196 396
85 396
184 37
48 166
167 308
91 79
48 310
412 497
124 60
188 61
14 389
210 289
171 155
294 295
94 299
112 379
10 423
81 98
202 438
164 327
64 257
138 56
96 74
185 438
82 80
470 90
249 161
407 358
25 300
357 86
170 123
463 289
281 372
67 157
384 291
182 134
85 482
149 167
185 102
198 489
180 286
222 421
400 357
468 62
453 344
24 218
496 348
74 15
251 208
11 339
458 170
109 287
398 250
283 297
497 443
156 213
458 119
264 302
464 180
257 7
8 234
471 126
481 199
339 75
210 33
273 340
494 292
72 168
242 23
483 425
72 289
71 411
283 41
160 431
181 468
144 82
264 376
66 15
173 299
6 381
